105
106
107
108
109
111
112
113
114
115
116
117
129
130
131
132
133
134
135
136
137
138
144
145
146
145
146
147
148
149
150
201
205
206
208
210
211
212
213
214
215
216
217
218
219
220
221
223
224
226
227
228
229
230
301
302
303
304
305
306
307
308
309
310
311
312
313
314
316
317
319
320
321
322
323
325
326
327
328
329
333
334
335
336
337
338
340
345
346
